(set-info :smt-lib-version 2.6)
(set-logic QF_LIA)
(set-info :source |
Mathsat benchmarks available from http://mathsat.itc.it

This benchmark was automatically translated into SMT-LIB format from
CVC format using CVC Lite
|)
(set-info :category "industrial")
(set-info :status sat)
(declare-fun arg1 () Int)
(declare-fun ARG2_LSBRCK_0_RSBRCK_ () Bool)
(declare-fun arg2_LSBRCK_0_RSBRCK_ () Int)
(declare-fun ARG2_LSBRCK_10_RSBRCK_ () Bool)
(declare-fun arg2_LSBRCK_10_RSBRCK_ () Int)
(declare-fun ARG2_LSBRCK_11_RSBRCK_ () Bool)
(declare-fun arg2_LSBRCK_11_RSBRCK_ () Int)
(declare-fun ARG2_LSBRCK_12_RSBRCK_ () Bool)
(declare-fun arg2_LSBRCK_12_RSBRCK_ () Int)
(declare-fun ARG2_LSBRCK_13_RSBRCK_ () Bool)
(declare-fun arg2_LSBRCK_13_RSBRCK_ () Int)
(declare-fun ARG2_LSBRCK_14_RSBRCK_ () Bool)
(declare-fun arg2_LSBRCK_14_RSBRCK_ () Int)
(declare-fun ARG2_LSBRCK_15_RSBRCK_ () Bool)
(declare-fun arg2_LSBRCK_15_RSBRCK_ () Int)
(declare-fun ARG2_LSBRCK_16_RSBRCK_ () Bool)
(declare-fun arg2_LSBRCK_16_RSBRCK_ () Int)
(declare-fun ARG2_LSBRCK_17_RSBRCK_ () Bool)
(declare-fun arg2_LSBRCK_17_RSBRCK_ () Int)
(declare-fun ARG2_LSBRCK_18_RSBRCK_ () Bool)
(declare-fun arg2_LSBRCK_18_RSBRCK_ () Int)
(declare-fun ARG2_LSBRCK_19_RSBRCK_ () Bool)
(declare-fun arg2_LSBRCK_19_RSBRCK_ () Int)
(declare-fun ARG2_LSBRCK_1_RSBRCK_ () Bool)
(declare-fun arg2_LSBRCK_1_RSBRCK_ () Int)
(declare-fun ARG2_LSBRCK_20_RSBRCK_ () Bool)
(declare-fun arg2_LSBRCK_20_RSBRCK_ () Int)
(declare-fun ARG2_LSBRCK_21_RSBRCK_ () Bool)
(declare-fun arg2_LSBRCK_21_RSBRCK_ () Int)
(declare-fun ARG2_LSBRCK_22_RSBRCK_ () Bool)
(declare-fun arg2_LSBRCK_22_RSBRCK_ () Int)
(declare-fun ARG2_LSBRCK_23_RSBRCK_ () Bool)
(declare-fun arg2_LSBRCK_23_RSBRCK_ () Int)
(declare-fun ARG2_LSBRCK_24_RSBRCK_ () Bool)
(declare-fun arg2_LSBRCK_24_RSBRCK_ () Int)
(declare-fun ARG2_LSBRCK_25_RSBRCK_ () Bool)
(declare-fun arg2_LSBRCK_25_RSBRCK_ () Int)
(declare-fun ARG2_LSBRCK_26_RSBRCK_ () Bool)
(declare-fun arg2_LSBRCK_26_RSBRCK_ () Int)
(declare-fun ARG2_LSBRCK_27_RSBRCK_ () Bool)
(declare-fun arg2_LSBRCK_27_RSBRCK_ () Int)
(declare-fun ARG2_LSBRCK_28_RSBRCK_ () Bool)
(declare-fun arg2_LSBRCK_28_RSBRCK_ () Int)
(declare-fun ARG2_LSBRCK_29_RSBRCK_ () Bool)
(declare-fun arg2_LSBRCK_29_RSBRCK_ () Int)
(declare-fun ARG2_LSBRCK_2_RSBRCK_ () Bool)
(declare-fun arg2_LSBRCK_2_RSBRCK_ () Int)
(declare-fun ARG2_LSBRCK_30_RSBRCK_ () Bool)
(declare-fun arg2_LSBRCK_30_RSBRCK_ () Int)
(declare-fun ARG2_LSBRCK_31_RSBRCK_ () Bool)
(declare-fun arg2_LSBRCK_31_RSBRCK_ () Int)
(declare-fun ARG2_LSBRCK_3_RSBRCK_ () Bool)
(declare-fun arg2_LSBRCK_3_RSBRCK_ () Int)
(declare-fun ARG2_LSBRCK_4_RSBRCK_ () Bool)
(declare-fun arg2_LSBRCK_4_RSBRCK_ () Int)
(declare-fun ARG2_LSBRCK_5_RSBRCK_ () Bool)
(declare-fun arg2_LSBRCK_5_RSBRCK_ () Int)
(declare-fun ARG2_LSBRCK_6_RSBRCK_ () Bool)
(declare-fun arg2_LSBRCK_6_RSBRCK_ () Int)
(declare-fun ARG2_LSBRCK_7_RSBRCK_ () Bool)
(declare-fun arg2_LSBRCK_7_RSBRCK_ () Int)
(declare-fun ARG2_LSBRCK_8_RSBRCK_ () Bool)
(declare-fun arg2_LSBRCK_8_RSBRCK_ () Int)
(declare-fun ARG2_LSBRCK_9_RSBRCK_ () Bool)
(declare-fun arg2_LSBRCK_9_RSBRCK_ () Int)
(declare-fun arg2 () Int)
(declare-fun mul () Int)
(declare-fun mul_sum_LSBRCK_0_RSBRCK_ () Int)
(declare-fun mul_sum_LSBRCK_10_RSBRCK_ () Int)
(declare-fun mul_sum_LSBRCK_11_RSBRCK_ () Int)
(declare-fun mul_sum_LSBRCK_12_RSBRCK_ () Int)
(declare-fun mul_sum_LSBRCK_13_RSBRCK_ () Int)
(declare-fun mul_sum_LSBRCK_14_RSBRCK_ () Int)
(declare-fun mul_sum_LSBRCK_15_RSBRCK_ () Int)
(declare-fun mul_sum_LSBRCK_16_RSBRCK_ () Int)
(declare-fun mul_sum_LSBRCK_17_RSBRCK_ () Int)
(declare-fun mul_sum_LSBRCK_18_RSBRCK_ () Int)
(declare-fun mul_sum_LSBRCK_19_RSBRCK_ () Int)
(declare-fun mul_sum_LSBRCK_1_RSBRCK_ () Int)
(declare-fun mul_sum_LSBRCK_20_RSBRCK_ () Int)
(declare-fun mul_sum_LSBRCK_21_RSBRCK_ () Int)
(declare-fun mul_sum_LSBRCK_22_RSBRCK_ () Int)
(declare-fun mul_sum_LSBRCK_23_RSBRCK_ () Int)
(declare-fun mul_sum_LSBRCK_24_RSBRCK_ () Int)
(declare-fun mul_sum_LSBRCK_25_RSBRCK_ () Int)
(declare-fun mul_sum_LSBRCK_26_RSBRCK_ () Int)
(declare-fun mul_sum_LSBRCK_27_RSBRCK_ () Int)
(declare-fun mul_sum_LSBRCK_28_RSBRCK_ () Int)
(declare-fun mul_sum_LSBRCK_29_RSBRCK_ () Int)
(declare-fun mul_sum_LSBRCK_2_RSBRCK_ () Int)
(declare-fun mul_sum_LSBRCK_30_RSBRCK_ () Int)
(declare-fun mul_sum_LSBRCK_31_RSBRCK_ () Int)
(declare-fun mul_sum_LSBRCK_3_RSBRCK_ () Int)
(declare-fun mul_sum_LSBRCK_4_RSBRCK_ () Int)
(declare-fun mul_sum_LSBRCK_5_RSBRCK_ () Int)
(declare-fun mul_sum_LSBRCK_6_RSBRCK_ () Int)
(declare-fun mul_sum_LSBRCK_7_RSBRCK_ () Int)
(declare-fun mul_sum_LSBRCK_8_RSBRCK_ () Int)
(declare-fun mul_sum_LSBRCK_9_RSBRCK_ () Int)
(declare-fun mul_sum () Int)
(assert (let ((?v_0 (not ARG2_LSBRCK_0_RSBRCK_)) (?v_1 (not ARG2_LSBRCK_1_RSBRCK_)) (?v_2 (not ARG2_LSBRCK_2_RSBRCK_)) (?v_3 (not ARG2_LSBRCK_3_RSBRCK_)) (?v_4 (not ARG2_LSBRCK_4_RSBRCK_)) (?v_5 (not ARG2_LSBRCK_5_RSBRCK_)) (?v_6 (not ARG2_LSBRCK_6_RSBRCK_)) (?v_7 (not ARG2_LSBRCK_7_RSBRCK_)) (?v_8 (not ARG2_LSBRCK_8_RSBRCK_)) (?v_9 (not ARG2_LSBRCK_9_RSBRCK_)) (?v_10 (not ARG2_LSBRCK_10_RSBRCK_)) (?v_11 (not ARG2_LSBRCK_11_RSBRCK_)) (?v_12 (not ARG2_LSBRCK_12_RSBRCK_)) (?v_13 (not ARG2_LSBRCK_13_RSBRCK_)) (?v_14 (not ARG2_LSBRCK_14_RSBRCK_)) (?v_15 (not ARG2_LSBRCK_15_RSBRCK_)) (?v_16 (not ARG2_LSBRCK_16_RSBRCK_)) (?v_17 (not ARG2_LSBRCK_17_RSBRCK_)) (?v_18 (not ARG2_LSBRCK_18_RSBRCK_)) (?v_19 (not ARG2_LSBRCK_19_RSBRCK_)) (?v_20 (not ARG2_LSBRCK_20_RSBRCK_)) (?v_21 (not ARG2_LSBRCK_21_RSBRCK_)) (?v_22 (not ARG2_LSBRCK_22_RSBRCK_)) (?v_23 (not ARG2_LSBRCK_23_RSBRCK_)) (?v_24 (not ARG2_LSBRCK_24_RSBRCK_)) (?v_25 (not ARG2_LSBRCK_25_RSBRCK_)) (?v_26 (not ARG2_LSBRCK_26_RSBRCK_)) (?v_27 (not ARG2_LSBRCK_27_RSBRCK_)) (?v_28 (not ARG2_LSBRCK_28_RSBRCK_)) (?v_29 (not ARG2_LSBRCK_29_RSBRCK_)) (?v_30 (not ARG2_LSBRCK_30_RSBRCK_)) (?v_31 (not ARG2_LSBRCK_31_RSBRCK_))) (and (and (and (and (and (and (and (and (and (and (and (and (and (and (and (and (and (and (and (and (and (and (and (and (and (and (and (and (and (and (and (and (and (and (and (and (and (and (and (and (and (and (and (and (and (and (and (and (and (and (and (and (and (and (and (and (and (and (and (and (and (and (and (and (and (and (and (and (and (and (and (and (and (and (and (and (and (and (and (and (and (and (and (and (and (and (and (and (and (and (and (and (and (and (and (and (and (and (and (and (and (and (and (and (and (and (and (and (and (and (and (and (and (and (and (and (and (and (and (and (and (and (and (and (and (and (and (and (and (and (and (and (and (and (and (and (and (and (and (and (and (and (and (and (and (and (and (and (and (and (and (and (and (and (and (and (and (and (and (and (and (and (and (and (and (and (and (and (and (and (and (and (and (and (and (and (and (and (and (and (and (and (and (and (and (and (and (and (and (and (and (and (and (and (and (and (and (and (and (and (and (and (and (and (and (and (and (and (and (and (and (and (and (and (and (and (and (and (and (and (and (and (and (and (and (and (and (and (and (and (and (and (and (and (and (and (and (and (and (and (and (and (and (and (and (and (and (and (and (and (and (and (and (and (and (and (and (and (and (and (and (and (and (and (and (and (and (>= arg2 0) (<= arg2 4294967295)) (= (- (- (- (- (- (- (- (- (- (- (- (- (- (- (- (- (- (- (- (- (- (- (- (- (- (- (- (- (- (- (- (- arg2 arg2_LSBRCK_0_RSBRCK_) (* 2 arg2_LSBRCK_1_RSBRCK_)) (* 4 arg2_LSBRCK_2_RSBRCK_)) (* 8 arg2_LSBRCK_3_RSBRCK_)) (* 16 arg2_LSBRCK_4_RSBRCK_)) (* 32 arg2_LSBRCK_5_RSBRCK_)) (* 64 arg2_LSBRCK_6_RSBRCK_)) (* 128 arg2_LSBRCK_7_RSBRCK_)) (* 256 arg2_LSBRCK_8_RSBRCK_)) (* 512 arg2_LSBRCK_9_RSBRCK_)) (* 1024 arg2_LSBRCK_10_RSBRCK_)) (* 2048 arg2_LSBRCK_11_RSBRCK_)) (* 4096 arg2_LSBRCK_12_RSBRCK_)) (* 8192 arg2_LSBRCK_13_RSBRCK_)) (* 16384 arg2_LSBRCK_14_RSBRCK_)) (* 32768 arg2_LSBRCK_15_RSBRCK_)) (* 65536 arg2_LSBRCK_16_RSBRCK_)) (* 131072 arg2_LSBRCK_17_RSBRCK_)) (* 262144 arg2_LSBRCK_18_RSBRCK_)) (* 524288 arg2_LSBRCK_19_RSBRCK_)) (* 1048576 arg2_LSBRCK_20_RSBRCK_)) (* 2097152 arg2_LSBRCK_21_RSBRCK_)) (* 4194304 arg2_LSBRCK_22_RSBRCK_)) (* 8388608 arg2_LSBRCK_23_RSBRCK_)) (* 16777216 arg2_LSBRCK_24_RSBRCK_)) (* 33554432 arg2_LSBRCK_25_RSBRCK_)) (* 67108864 arg2_LSBRCK_26_RSBRCK_)) (* 134217728 arg2_LSBRCK_27_RSBRCK_)) (* 268435456 arg2_LSBRCK_28_RSBRCK_)) (* 536870912 arg2_LSBRCK_29_RSBRCK_)) (* 1073741824 arg2_LSBRCK_30_RSBRCK_)) (* 2147483648 arg2_LSBRCK_31_RSBRCK_)) 0)) (>= arg2_LSBRCK_0_RSBRCK_ 0)) (<= arg2_LSBRCK_0_RSBRCK_ 1)) (or ?v_0 (= arg2_LSBRCK_0_RSBRCK_ 1))) (or ARG2_LSBRCK_0_RSBRCK_ (= arg2_LSBRCK_0_RSBRCK_ 0))) (>= arg2_LSBRCK_1_RSBRCK_ 0)) (<= arg2_LSBRCK_1_RSBRCK_ 1)) (or ?v_1 (= arg2_LSBRCK_1_RSBRCK_ 1))) (or ARG2_LSBRCK_1_RSBRCK_ (= arg2_LSBRCK_1_RSBRCK_ 0))) (>= arg2_LSBRCK_2_RSBRCK_ 0)) (<= arg2_LSBRCK_2_RSBRCK_ 1)) (or ?v_2 (= arg2_LSBRCK_2_RSBRCK_ 1))) (or ARG2_LSBRCK_2_RSBRCK_ (= arg2_LSBRCK_2_RSBRCK_ 0))) (>= arg2_LSBRCK_3_RSBRCK_ 0)) (<= arg2_LSBRCK_3_RSBRCK_ 1)) (or ?v_3 (= arg2_LSBRCK_3_RSBRCK_ 1))) (or ARG2_LSBRCK_3_RSBRCK_ (= arg2_LSBRCK_3_RSBRCK_ 0))) (>= arg2_LSBRCK_4_RSBRCK_ 0)) (<= arg2_LSBRCK_4_RSBRCK_ 1)) (or ?v_4 (= arg2_LSBRCK_4_RSBRCK_ 1))) (or ARG2_LSBRCK_4_RSBRCK_ (= arg2_LSBRCK_4_RSBRCK_ 0))) (>= arg2_LSBRCK_5_RSBRCK_ 0)) (<= arg2_LSBRCK_5_RSBRCK_ 1)) (or ?v_5 (= arg2_LSBRCK_5_RSBRCK_ 1))) (or ARG2_LSBRCK_5_RSBRCK_ (= arg2_LSBRCK_5_RSBRCK_ 0))) (>= arg2_LSBRCK_6_RSBRCK_ 0)) (<= arg2_LSBRCK_6_RSBRCK_ 1)) (or ?v_6 (= arg2_LSBRCK_6_RSBRCK_ 1))) (or ARG2_LSBRCK_6_RSBRCK_ (= arg2_LSBRCK_6_RSBRCK_ 0))) (>= arg2_LSBRCK_7_RSBRCK_ 0)) (<= arg2_LSBRCK_7_RSBRCK_ 1)) (or ?v_7 (= arg2_LSBRCK_7_RSBRCK_ 1))) (or ARG2_LSBRCK_7_RSBRCK_ (= arg2_LSBRCK_7_RSBRCK_ 0))) (>= arg2_LSBRCK_8_RSBRCK_ 0)) (<= arg2_LSBRCK_8_RSBRCK_ 1)) (or ?v_8 (= arg2_LSBRCK_8_RSBRCK_ 1))) (or ARG2_LSBRCK_8_RSBRCK_ (= arg2_LSBRCK_8_RSBRCK_ 0))) (>= arg2_LSBRCK_9_RSBRCK_ 0)) (<= arg2_LSBRCK_9_RSBRCK_ 1)) (or ?v_9 (= arg2_LSBRCK_9_RSBRCK_ 1))) (or ARG2_LSBRCK_9_RSBRCK_ (= arg2_LSBRCK_9_RSBRCK_ 0))) (>= arg2_LSBRCK_10_RSBRCK_ 0)) (<= arg2_LSBRCK_10_RSBRCK_ 1)) (or ?v_10 (= arg2_LSBRCK_10_RSBRCK_ 1))) (or ARG2_LSBRCK_10_RSBRCK_ (= arg2_LSBRCK_10_RSBRCK_ 0))) (>= arg2_LSBRCK_11_RSBRCK_ 0)) (<= arg2_LSBRCK_11_RSBRCK_ 1)) (or ?v_11 (= arg2_LSBRCK_11_RSBRCK_ 1))) (or ARG2_LSBRCK_11_RSBRCK_ (= arg2_LSBRCK_11_RSBRCK_ 0))) (>= arg2_LSBRCK_12_RSBRCK_ 0)) (<= arg2_LSBRCK_12_RSBRCK_ 1)) (or ?v_12 (= arg2_LSBRCK_12_RSBRCK_ 1))) (or ARG2_LSBRCK_12_RSBRCK_ (= arg2_LSBRCK_12_RSBRCK_ 0))) (>= arg2_LSBRCK_13_RSBRCK_ 0)) (<= arg2_LSBRCK_13_RSBRCK_ 1)) (or ?v_13 (= arg2_LSBRCK_13_RSBRCK_ 1))) (or ARG2_LSBRCK_13_RSBRCK_ (= arg2_LSBRCK_13_RSBRCK_ 0))) (>= arg2_LSBRCK_14_RSBRCK_ 0)) (<= arg2_LSBRCK_14_RSBRCK_ 1)) (or ?v_14 (= arg2_LSBRCK_14_RSBRCK_ 1))) (or ARG2_LSBRCK_14_RSBRCK_ (= arg2_LSBRCK_14_RSBRCK_ 0))) (>= arg2_LSBRCK_15_RSBRCK_ 0)) (<= arg2_LSBRCK_15_RSBRCK_ 1)) (or ?v_15 (= arg2_LSBRCK_15_RSBRCK_ 1))) (or ARG2_LSBRCK_15_RSBRCK_ (= arg2_LSBRCK_15_RSBRCK_ 0))) (>= arg2_LSBRCK_16_RSBRCK_ 0)) (<= arg2_LSBRCK_16_RSBRCK_ 1)) (or ?v_16 (= arg2_LSBRCK_16_RSBRCK_ 1))) (or ARG2_LSBRCK_16_RSBRCK_ (= arg2_LSBRCK_16_RSBRCK_ 0))) (>= arg2_LSBRCK_17_RSBRCK_ 0)) (<= arg2_LSBRCK_17_RSBRCK_ 1)) (or ?v_17 (= arg2_LSBRCK_17_RSBRCK_ 1))) (or ARG2_LSBRCK_17_RSBRCK_ (= arg2_LSBRCK_17_RSBRCK_ 0))) (>= arg2_LSBRCK_18_RSBRCK_ 0)) (<= arg2_LSBRCK_18_RSBRCK_ 1)) (or ?v_18 (= arg2_LSBRCK_18_RSBRCK_ 1))) (or ARG2_LSBRCK_18_RSBRCK_ (= arg2_LSBRCK_18_RSBRCK_ 0))) (>= arg2_LSBRCK_19_RSBRCK_ 0)) (<= arg2_LSBRCK_19_RSBRCK_ 1)) (or ?v_19 (= arg2_LSBRCK_19_RSBRCK_ 1))) (or ARG2_LSBRCK_19_RSBRCK_ (= arg2_LSBRCK_19_RSBRCK_ 0))) (>= arg2_LSBRCK_20_RSBRCK_ 0)) (<= arg2_LSBRCK_20_RSBRCK_ 1)) (or ?v_20 (= arg2_LSBRCK_20_RSBRCK_ 1))) (or ARG2_LSBRCK_20_RSBRCK_ (= arg2_LSBRCK_20_RSBRCK_ 0))) (>= arg2_LSBRCK_21_RSBRCK_ 0)) (<= arg2_LSBRCK_21_RSBRCK_ 1)) (or ?v_21 (= arg2_LSBRCK_21_RSBRCK_ 1))) (or ARG2_LSBRCK_21_RSBRCK_ (= arg2_LSBRCK_21_RSBRCK_ 0))) (>= arg2_LSBRCK_22_RSBRCK_ 0)) (<= arg2_LSBRCK_22_RSBRCK_ 1)) (or ?v_22 (= arg2_LSBRCK_22_RSBRCK_ 1))) (or ARG2_LSBRCK_22_RSBRCK_ (= arg2_LSBRCK_22_RSBRCK_ 0))) (>= arg2_LSBRCK_23_RSBRCK_ 0)) (<= arg2_LSBRCK_23_RSBRCK_ 1)) (or ?v_23 (= arg2_LSBRCK_23_RSBRCK_ 1))) (or ARG2_LSBRCK_23_RSBRCK_ (= arg2_LSBRCK_23_RSBRCK_ 0))) (>= arg2_LSBRCK_24_RSBRCK_ 0)) (<= arg2_LSBRCK_24_RSBRCK_ 1)) (or ?v_24 (= arg2_LSBRCK_24_RSBRCK_ 1))) (or ARG2_LSBRCK_24_RSBRCK_ (= arg2_LSBRCK_24_RSBRCK_ 0))) (>= arg2_LSBRCK_25_RSBRCK_ 0)) (<= arg2_LSBRCK_25_RSBRCK_ 1)) (or ?v_25 (= arg2_LSBRCK_25_RSBRCK_ 1))) (or ARG2_LSBRCK_25_RSBRCK_ (= arg2_LSBRCK_25_RSBRCK_ 0))) (>= arg2_LSBRCK_26_RSBRCK_ 0)) (<= arg2_LSBRCK_26_RSBRCK_ 1)) (or ?v_26 (= arg2_LSBRCK_26_RSBRCK_ 1))) (or ARG2_LSBRCK_26_RSBRCK_ (= arg2_LSBRCK_26_RSBRCK_ 0))) (>= arg2_LSBRCK_27_RSBRCK_ 0)) (<= arg2_LSBRCK_27_RSBRCK_ 1)) (or ?v_27 (= arg2_LSBRCK_27_RSBRCK_ 1))) (or ARG2_LSBRCK_27_RSBRCK_ (= arg2_LSBRCK_27_RSBRCK_ 0))) (>= arg2_LSBRCK_28_RSBRCK_ 0)) (<= arg2_LSBRCK_28_RSBRCK_ 1)) (or ?v_28 (= arg2_LSBRCK_28_RSBRCK_ 1))) (or ARG2_LSBRCK_28_RSBRCK_ (= arg2_LSBRCK_28_RSBRCK_ 0))) (>= arg2_LSBRCK_29_RSBRCK_ 0)) (<= arg2_LSBRCK_29_RSBRCK_ 1)) (or ?v_29 (= arg2_LSBRCK_29_RSBRCK_ 1))) (or ARG2_LSBRCK_29_RSBRCK_ (= arg2_LSBRCK_29_RSBRCK_ 0))) (>= arg2_LSBRCK_30_RSBRCK_ 0)) (<= arg2_LSBRCK_30_RSBRCK_ 1)) (or ?v_30 (= arg2_LSBRCK_30_RSBRCK_ 1))) (or ARG2_LSBRCK_30_RSBRCK_ (= arg2_LSBRCK_30_RSBRCK_ 0))) (>= arg2_LSBRCK_31_RSBRCK_ 0)) (<= arg2_LSBRCK_31_RSBRCK_ 1)) (or ?v_31 (= arg2_LSBRCK_31_RSBRCK_ 1))) (or ARG2_LSBRCK_31_RSBRCK_ (= arg2_LSBRCK_31_RSBRCK_ 0))) (>= mul_sum_LSBRCK_0_RSBRCK_ 0)) (<= mul_sum_LSBRCK_0_RSBRCK_ 4294967295)) (>= arg1 0)) (<= arg1 4294967295)) (or ?v_0 (= mul_sum_LSBRCK_0_RSBRCK_ arg1))) (or ARG2_LSBRCK_0_RSBRCK_ (= mul_sum_LSBRCK_0_RSBRCK_ 0))) (>= mul_sum_LSBRCK_1_RSBRCK_ 0)) (<= mul_sum_LSBRCK_1_RSBRCK_ 4294967295)) (or ?v_1 (= mul_sum_LSBRCK_1_RSBRCK_ arg1))) (or ARG2_LSBRCK_1_RSBRCK_ (= mul_sum_LSBRCK_1_RSBRCK_ 0))) (>= mul_sum_LSBRCK_2_RSBRCK_ 0)) (<= mul_sum_LSBRCK_2_RSBRCK_ 4294967295)) (or ?v_2 (= mul_sum_LSBRCK_2_RSBRCK_ arg1))) (or ARG2_LSBRCK_2_RSBRCK_ (= mul_sum_LSBRCK_2_RSBRCK_ 0))) (>= mul_sum_LSBRCK_3_RSBRCK_ 0)) (<= mul_sum_LSBRCK_3_RSBRCK_ 4294967295)) (or ?v_3 (= mul_sum_LSBRCK_3_RSBRCK_ arg1))) (or ARG2_LSBRCK_3_RSBRCK_ (= mul_sum_LSBRCK_3_RSBRCK_ 0))) (>= mul_sum_LSBRCK_4_RSBRCK_ 0)) (<= mul_sum_LSBRCK_4_RSBRCK_ 4294967295)) (or ?v_4 (= mul_sum_LSBRCK_4_RSBRCK_ arg1))) (or ARG2_LSBRCK_4_RSBRCK_ (= mul_sum_LSBRCK_4_RSBRCK_ 0))) (>= mul_sum_LSBRCK_5_RSBRCK_ 0)) (<= mul_sum_LSBRCK_5_RSBRCK_ 4294967295)) (or ?v_5 (= mul_sum_LSBRCK_5_RSBRCK_ arg1))) (or ARG2_LSBRCK_5_RSBRCK_ (= mul_sum_LSBRCK_5_RSBRCK_ 0))) (>= mul_sum_LSBRCK_6_RSBRCK_ 0)) (<= mul_sum_LSBRCK_6_RSBRCK_ 4294967295)) (or ?v_6 (= mul_sum_LSBRCK_6_RSBRCK_ arg1))) (or ARG2_LSBRCK_6_RSBRCK_ (= mul_sum_LSBRCK_6_RSBRCK_ 0))) (>= mul_sum_LSBRCK_7_RSBRCK_ 0)) (<= mul_sum_LSBRCK_7_RSBRCK_ 4294967295)) (or ?v_7 (= mul_sum_LSBRCK_7_RSBRCK_ arg1))) (or ARG2_LSBRCK_7_RSBRCK_ (= mul_sum_LSBRCK_7_RSBRCK_ 0))) (>= mul_sum_LSBRCK_8_RSBRCK_ 0)) (<= mul_sum_LSBRCK_8_RSBRCK_ 4294967295)) (or ?v_8 (= mul_sum_LSBRCK_8_RSBRCK_ arg1))) (or ARG2_LSBRCK_8_RSBRCK_ (= mul_sum_LSBRCK_8_RSBRCK_ 0))) (>= mul_sum_LSBRCK_9_RSBRCK_ 0)) (<= mul_sum_LSBRCK_9_RSBRCK_ 4294967295)) (or ?v_9 (= mul_sum_LSBRCK_9_RSBRCK_ arg1))) (or ARG2_LSBRCK_9_RSBRCK_ (= mul_sum_LSBRCK_9_RSBRCK_ 0))) (>= mul_sum_LSBRCK_10_RSBRCK_ 0)) (<= mul_sum_LSBRCK_10_RSBRCK_ 4294967295)) (or ?v_10 (= mul_sum_LSBRCK_10_RSBRCK_ arg1))) (or ARG2_LSBRCK_10_RSBRCK_ (= mul_sum_LSBRCK_10_RSBRCK_ 0))) (>= mul_sum_LSBRCK_11_RSBRCK_ 0)) (<= mul_sum_LSBRCK_11_RSBRCK_ 4294967295)) (or ?v_11 (= mul_sum_LSBRCK_11_RSBRCK_ arg1))) (or ARG2_LSBRCK_11_RSBRCK_ (= mul_sum_LSBRCK_11_RSBRCK_ 0))) (>= mul_sum_LSBRCK_12_RSBRCK_ 0)) (<= mul_sum_LSBRCK_12_RSBRCK_ 4294967295)) (or ?v_12 (= mul_sum_LSBRCK_12_RSBRCK_ arg1))) (or ARG2_LSBRCK_12_RSBRCK_ (= mul_sum_LSBRCK_12_RSBRCK_ 0))) (>= mul_sum_LSBRCK_13_RSBRCK_ 0)) (<= mul_sum_LSBRCK_13_RSBRCK_ 4294967295)) (or ?v_13 (= mul_sum_LSBRCK_13_RSBRCK_ arg1))) (or ARG2_LSBRCK_13_RSBRCK_ (= mul_sum_LSBRCK_13_RSBRCK_ 0))) (>= mul_sum_LSBRCK_14_RSBRCK_ 0)) (<= mul_sum_LSBRCK_14_RSBRCK_ 4294967295)) (or ?v_14 (= mul_sum_LSBRCK_14_RSBRCK_ arg1))) (or ARG2_LSBRCK_14_RSBRCK_ (= mul_sum_LSBRCK_14_RSBRCK_ 0))) (>= mul_sum_LSBRCK_15_RSBRCK_ 0)) (<= mul_sum_LSBRCK_15_RSBRCK_ 4294967295)) (or ?v_15 (= mul_sum_LSBRCK_15_RSBRCK_ arg1))) (or ARG2_LSBRCK_15_RSBRCK_ (= mul_sum_LSBRCK_15_RSBRCK_ 0))) (>= mul_sum_LSBRCK_16_RSBRCK_ 0)) (<= mul_sum_LSBRCK_16_RSBRCK_ 4294967295)) (or ?v_16 (= mul_sum_LSBRCK_16_RSBRCK_ arg1))) (or ARG2_LSBRCK_16_RSBRCK_ (= mul_sum_LSBRCK_16_RSBRCK_ 0))) (>= mul_sum_LSBRCK_17_RSBRCK_ 0)) (<= mul_sum_LSBRCK_17_RSBRCK_ 4294967295)) (or ?v_17 (= mul_sum_LSBRCK_17_RSBRCK_ arg1))) (or ARG2_LSBRCK_17_RSBRCK_ (= mul_sum_LSBRCK_17_RSBRCK_ 0))) (>= mul_sum_LSBRCK_18_RSBRCK_ 0)) (<= mul_sum_LSBRCK_18_RSBRCK_ 4294967295)) (or ?v_18 (= mul_sum_LSBRCK_18_RSBRCK_ arg1))) (or ARG2_LSBRCK_18_RSBRCK_ (= mul_sum_LSBRCK_18_RSBRCK_ 0))) (>= mul_sum_LSBRCK_19_RSBRCK_ 0)) (<= mul_sum_LSBRCK_19_RSBRCK_ 4294967295)) (or ?v_19 (= mul_sum_LSBRCK_19_RSBRCK_ arg1))) (or ARG2_LSBRCK_19_RSBRCK_ (= mul_sum_LSBRCK_19_RSBRCK_ 0))) (>= mul_sum_LSBRCK_20_RSBRCK_ 0)) (<= mul_sum_LSBRCK_20_RSBRCK_ 4294967295)) (or ?v_20 (= mul_sum_LSBRCK_20_RSBRCK_ arg1))) (or ARG2_LSBRCK_20_RSBRCK_ (= mul_sum_LSBRCK_20_RSBRCK_ 0))) (>= mul_sum_LSBRCK_21_RSBRCK_ 0)) (<= mul_sum_LSBRCK_21_RSBRCK_ 4294967295)) (or ?v_21 (= mul_sum_LSBRCK_21_RSBRCK_ arg1))) (or ARG2_LSBRCK_21_RSBRCK_ (= mul_sum_LSBRCK_21_RSBRCK_ 0))) (>= mul_sum_LSBRCK_22_RSBRCK_ 0)) (<= mul_sum_LSBRCK_22_RSBRCK_ 4294967295)) (or ?v_22 (= mul_sum_LSBRCK_22_RSBRCK_ arg1))) (or ARG2_LSBRCK_22_RSBRCK_ (= mul_sum_LSBRCK_22_RSBRCK_ 0))) (>= mul_sum_LSBRCK_23_RSBRCK_ 0)) (<= mul_sum_LSBRCK_23_RSBRCK_ 4294967295)) (or ?v_23 (= mul_sum_LSBRCK_23_RSBRCK_ arg1))) (or ARG2_LSBRCK_23_RSBRCK_ (= mul_sum_LSBRCK_23_RSBRCK_ 0))) (>= mul_sum_LSBRCK_24_RSBRCK_ 0)) (<= mul_sum_LSBRCK_24_RSBRCK_ 4294967295)) (or ?v_24 (= mul_sum_LSBRCK_24_RSBRCK_ arg1))) (or ARG2_LSBRCK_24_RSBRCK_ (= mul_sum_LSBRCK_24_RSBRCK_ 0))) (>= mul_sum_LSBRCK_25_RSBRCK_ 0)) (<= mul_sum_LSBRCK_25_RSBRCK_ 4294967295)) (or ?v_25 (= mul_sum_LSBRCK_25_RSBRCK_ arg1))) (or ARG2_LSBRCK_25_RSBRCK_ (= mul_sum_LSBRCK_25_RSBRCK_ 0))) (>= mul_sum_LSBRCK_26_RSBRCK_ 0)) (<= mul_sum_LSBRCK_26_RSBRCK_ 4294967295)) (or ?v_26 (= mul_sum_LSBRCK_26_RSBRCK_ arg1))) (or ARG2_LSBRCK_26_RSBRCK_ (= mul_sum_LSBRCK_26_RSBRCK_ 0))) (>= mul_sum_LSBRCK_27_RSBRCK_ 0)) (<= mul_sum_LSBRCK_27_RSBRCK_ 4294967295)) (or ?v_27 (= mul_sum_LSBRCK_27_RSBRCK_ arg1))) (or ARG2_LSBRCK_27_RSBRCK_ (= mul_sum_LSBRCK_27_RSBRCK_ 0))) (>= mul_sum_LSBRCK_28_RSBRCK_ 0)) (<= mul_sum_LSBRCK_28_RSBRCK_ 4294967295)) (or ?v_28 (= mul_sum_LSBRCK_28_RSBRCK_ arg1))) (or ARG2_LSBRCK_28_RSBRCK_ (= mul_sum_LSBRCK_28_RSBRCK_ 0))) (>= mul_sum_LSBRCK_29_RSBRCK_ 0)) (<= mul_sum_LSBRCK_29_RSBRCK_ 4294967295)) (or ?v_29 (= mul_sum_LSBRCK_29_RSBRCK_ arg1))) (or ARG2_LSBRCK_29_RSBRCK_ (= mul_sum_LSBRCK_29_RSBRCK_ 0))) (>= mul_sum_LSBRCK_30_RSBRCK_ 0)) (<= mul_sum_LSBRCK_30_RSBRCK_ 4294967295)) (or ?v_30 (= mul_sum_LSBRCK_30_RSBRCK_ arg1))) (or ARG2_LSBRCK_30_RSBRCK_ (= mul_sum_LSBRCK_30_RSBRCK_ 0))) (>= mul_sum_LSBRCK_31_RSBRCK_ 0)) (<= mul_sum_LSBRCK_31_RSBRCK_ 4294967295)) (or ?v_31 (= mul_sum_LSBRCK_31_RSBRCK_ arg1))) (or ARG2_LSBRCK_31_RSBRCK_ (= mul_sum_LSBRCK_31_RSBRCK_ 0))) (>= mul_sum 0)) (<= mul_sum 18446744073709551615)) (= (- (- (- (- (- (- (- (- (- (- (- (- (- (- (- (- (- (- (- (- (- (- (- (- (- (- (- (- (- (- (- (- mul_sum mul_sum_LSBRCK_0_RSBRCK_) (* 2 mul_sum_LSBRCK_1_RSBRCK_)) (* 4 mul_sum_LSBRCK_2_RSBRCK_)) (* 8 mul_sum_LSBRCK_3_RSBRCK_)) (* 16 mul_sum_LSBRCK_4_RSBRCK_)) (* 32 mul_sum_LSBRCK_5_RSBRCK_)) (* 64 mul_sum_LSBRCK_6_RSBRCK_)) (* 128 mul_sum_LSBRCK_7_RSBRCK_)) (* 256 mul_sum_LSBRCK_8_RSBRCK_)) (* 512 mul_sum_LSBRCK_9_RSBRCK_)) (* 1024 mul_sum_LSBRCK_10_RSBRCK_)) (* 2048 mul_sum_LSBRCK_11_RSBRCK_)) (* 4096 mul_sum_LSBRCK_12_RSBRCK_)) (* 8192 mul_sum_LSBRCK_13_RSBRCK_)) (* 16384 mul_sum_LSBRCK_14_RSBRCK_)) (* 32768 mul_sum_LSBRCK_15_RSBRCK_)) (* 65536 mul_sum_LSBRCK_16_RSBRCK_)) (* 131072 mul_sum_LSBRCK_17_RSBRCK_)) (* 262144 mul_sum_LSBRCK_18_RSBRCK_)) (* 524288 mul_sum_LSBRCK_19_RSBRCK_)) (* 1048576 mul_sum_LSBRCK_20_RSBRCK_)) (* 2097152 mul_sum_LSBRCK_21_RSBRCK_)) (* 4194304 mul_sum_LSBRCK_22_RSBRCK_)) (* 8388608 mul_sum_LSBRCK_23_RSBRCK_)) (* 16777216 mul_sum_LSBRCK_24_RSBRCK_)) (* 33554432 mul_sum_LSBRCK_25_RSBRCK_)) (* 67108864 mul_sum_LSBRCK_26_RSBRCK_)) (* 134217728 mul_sum_LSBRCK_27_RSBRCK_)) (* 268435456 mul_sum_LSBRCK_28_RSBRCK_)) (* 536870912 mul_sum_LSBRCK_29_RSBRCK_)) (* 1073741824 mul_sum_LSBRCK_30_RSBRCK_)) (* 2147483648 mul_sum_LSBRCK_31_RSBRCK_)) 0)) (>= mul 0)) (<= mul 18446744073709551615)) (= mul mul_sum)) (= mul 4))))
(check-sat)
(exit)
